[[31, 25, 55, 18, 50, 32, 44, 3, 24, 49, 16, 33, 63, 23, 56, 43, 41, 42, 64, 22, 73, 62], [28, 2, 74, 30, 48, 47, 21, 61, 69, 36, 71, 60, 70, 20, 37, 5, 15, 57, 54, 13, 52, 27, 29, 45, 4, 75], [68, 6, 51, 17, 76, 26, 67, 34, 46, 8, 7, 35, 19, 53, 14, 59, 66, 11, 65, 38, 10, 58, 72, 12, 40, 9, 39]]